inputs/input16.dzn
n = 35;
l = 125;
s = 118;
r = 118;
f = 55;
forbidden = [| 2, 30
	| 24, 32
	| 24, 22
	| 32, 35
	| 27, 12
	| 8, 30
	| 12, 3
	| 21, 5
	| 18, 26
	| 9, 26
	| 31, 7
	| 9, 23
	| 33, 14
	| 31, 5
	| 35, 14
	| 10, 28
	| 31, 18
	| 23, 22
	| 22, 29
	| 17, 33
	| 24, 28
	| 26, 25
	| 21, 30
	| 12, 11
	| 2, 22
	| 23, 24
	| 18, 21
	| 7, 35
	| 6, 1
	| 20, 16
	| 1, 14
	| 12, 26
	| 29, 23
	| 17, 29
	| 34, 11
	| 11, 34
	| 11, 12
	| 24, 30
	| 24, 35
	| 4, 28
	| 19, 29
	| 7, 10
	| 29, 24
	| 28, 32
	| 26, 15
	| 6, 35
	| 9, 17
	| 22, 2
	| 22, 35
	| 16, 21
	| 13, 27
	| 6, 6
	| 5, 28
	| 28, 23
	| 35, 23
	|];